39 41
29
3 3 36 15
3 4 24 29
3 5 31 17
3 6 28 19
7 3 15 15
3 8 31 22
3 9 0 32
3 10 24 19
3 11 31 30
3 15 7 26
4 3 19 18
4 4 15 31
4 5 35 36
4 6 18 35
8 4 23 15
4 9 3 32
4 12 15 19
4 15 11 16
4 16 27 25
3 5 15 36
5 4 2 28
5 5 5 15
5 6 6 20
5 8 22 33
5 10 10 31
5 11 19 21
5 13 0 15
5 18 34 18
39 15 0 0
